r = [
0,39,102,99,122,33,18,157,55,2,152,0
];
p = [
0,27,13,26,27,27,2,20,25,3,8,0
];
e = [
0,8,3,16,2,19,11,5,6,4,1,0
];
d = [
0,94,147,125,149,80,56,177,97,5,201,205
];
d_bar = [
0,108,154,138,163,94,57,187,110,7,205,205
];
w = [
0,0.571428571,0.428571429,1.230769231,0.142857143,1.357142857,11,0.5,0.461538462,2,0.25,0
];
